nLocations = 18;
nCities = 25;
nTypes = 3;

p = [14 25 40 18 18 26 13 14 33 25 4 39 7 17 19 23 36 1 3 18 27 26 18 8 35];
posCities = [[18 10] [16 1] [4 18] [9 11] [10 15] [20 6] [19 9] [19 21] [16 5] [16 20] [13 14] [1 4] [2 20] [3 0] [2 0] [0 13] [1 2] [4 14] [5 21] [4 4] [15 1] [0 18] [17 21] [9 8] [8 7]];
posLocations = [[11 20] [4 19] [21 6] [15 6] [21 20] [17 17] [3 21] [15 19] [10 13] [11 8] [21 3] [12 10] [13 2] [2 6] [10 0] [14 21] [10 8] [21 10]];

d_city = [4 12 19];
cap = [36 65 106];
cost = [27 47 49];

d_center = 1.7;
